num_offers = 40;
num_halls = 10;
start=[22,5,84,36,84,50,16,16,19,61,18,8,82,72,17,35,4,11,38,21,1,39,84,63,11,1,28,15,1,33,44,63,45,1,64,14,4,15,24,12];
end=[33,57,92,82,87,78,39,18,65,85,50,93,100,90,28,55,59,86,85,84,68,41,89,69,83,86,80,86,54,44,97,84,52,25,84,16,60,33,80,61];
price=[484,1198,133,735,189,1000,633,70,4235,567,981,2964,891,846,1062,1055,2678,2936,4713,3579,5433,237,304,682,5502,8398,1734,3500,3899,330,4447,660,434,859,1530,251,2412,1545,3202,4604];
requirement=[920,932,721,446,378,304,307,745,389,436,509,324,853,979,922,679,411,810,362,301,583,526,462,235,929,363,913,967,395,455,495,277,629,493,318,277,414,612,447,635];
capacity=[942,635,828,263,321,664,876,474,919,805];
